nN = 5;
nR = 15;
nH = 1;

a = [[15, 25, 20, 18, 19, 21, 18, 22, 24, 15, 25, 17, 17, 15, 22], [20, 18, 25, 25, 16, 24, 22, 24, 17, 18, 23, 25, 21, 25, 24], [25, 19, 18, 18, 23, 18, 15, 22, 23, 16, 25, 22, 22, 15, 16], [19, 19, 23, 17, 19, 19, 22, 19, 23, 22, 24, 22, 25, 19, 16], [25, 24, 17, 19, 25, 19, 23, 19, 25, 15, 19, 21, 18, 19, 22]];
c = [[[0, 0, 0, 0, 0, 0, 0, 0, 0, 0, 0, 0, 0, 0, 0], [39, 40, 41, 33, 48, 32, 39, 44, 39, 40, 42, 31, 34, 30, 35], [48, 41, 30, 33, 34, 42, 31, 39, 36, 40, 41, 48, 35, 42, 33], [46, 50, 37, 41, 33, 37, 41, 42, 34, 34, 33, 50, 43, 49, 44], [36, 37, 46, 36, 35, 42, 39, 36, 44, 33, 41, 40, 44, 50, 46]], [[0, 0, 0, 0, 0, 0, 0, 0, 0, 0, 0, 0, 0, 0, 0], [0, 0, 0, 0, 0, 0, 0, 0, 0, 0, 0, 0, 0, 0, 0], [37, 39, 48, 32, 45, 39, 47, 45, 46, 50, 36, 48, 32, 30, 33], [46, 44, 47, 40, 34, 36, 31, 43, 38, 36, 49, 37, 39, 44, 39], [45, 41, 41, 45, 30, 50, 41, 40, 41, 46, 41, 47, 30, 43, 41]], [[0, 0, 0, 0, 0, 0, 0, 0, 0, 0, 0, 0, 0, 0, 0], [0, 0, 0, 0, 0, 0, 0, 0, 0, 0, 0, 0, 0, 0, 0], [0, 0, 0, 0, 0, 0, 0, 0, 0, 0, 0, 0, 0, 0, 0], [42, 33, 39, 40, 35, 43, 42, 36, 35, 33, 44, 40, 45, 49, 44], [34, 41, 40, 34, 43, 44, 37, 44, 44, 33, 46, 45, 41, 42, 32]], [[0, 0, 0, 0, 0, 0, 0, 0, 0, 0, 0, 0, 0, 0, 0], [0, 0, 0, 0, 0, 0, 0, 0, 0, 0, 0, 0, 0, 0, 0], [0, 0, 0, 0, 0, 0, 0, 0, 0, 0, 0, 0, 0, 0, 0], [0, 0, 0, 0, 0, 0, 0, 0, 0, 0, 0, 0, 0, 0, 0], [32, 36, 32, 35, 49, 36, 45, 42, 48, 32, 36, 37, 37, 49, 49]], [[0, 0, 0, 0, 0, 0, 0, 0, 0, 0, 0, 0, 0, 0, 0], [0, 0, 0, 0, 0, 0, 0, 0, 0, 0, 0, 0, 0, 0, 0], [0, 0, 0, 0, 0, 0, 0, 0, 0, 0, 0, 0, 0, 0, 0], [0, 0, 0, 0, 0, 0, 0, 0, 0, 0, 0, 0, 0, 0, 0], [0, 0, 0, 0, 0, 0, 0, 0, 0, 0, 0, 0, 0, 0, 0]]];

q = [[[20], [20], [18], [9], [18], [5], [16], [18], [13], [24], [21], [23], [15], [19], [9]], [[5], [12], [18], [8], [22], [19], [19], [11], [7], [19], [20], [17], [21], [25], [5]], [[18], [8], [8], [9], [20], [20], [23], [13], [15], [12], [6], [12], [25], [25], [23]], [[17], [19], [24], [9], [16], [22], [10], [17], [12], [17], [15], [21], [16], [18], [6]], [[14], [6], [20], [6], [21], [5], [11], [23], [20], [21], [20], [18], [13], [13], [21]]];
Q = [[39], [36], [37], [38], [37]];
